c preprocessed version of myciel5, 47 vertices, 236 edges
p td 47 236
0 1
0 3
0 6
0 8
0 12
0 14
0 17
0 19
0 24
0 26
0 29
0 31
0 35
0 37
0 40
0 42
1 2
1 5
1 7
1 11
1 13
1 16
1 18
1 23
1 25
1 28
1 30
1 34
1 36
1 39
1 41
2 4
2 6
2 9
2 12
2 15
2 17
2 20
2 24
2 27
2 29
2 32
2 35
2 38
2 40
2 43
3 4
3 5
3 9
3 11
3 15
3 16
3 20
3 23
3 27
3 28
3 32
3 34
3 38
3 39
3 43
4 7
4 8
4 13
4 14
4 18
4 19
4 25
4 26
4 30
4 31
4 36
4 37
4 41
4 42
5 10
5 12
5 14
5 21
5 24
5 26
5 33
5 35
5 37
5 44
6 10
6 11
6 13
6 21
6 23
6 25
6 33
6 34
6 36
6 44
7 10
7 12
7 15
7 21
7 24
7 27
7 33
7 35
7 38
7 44
8 10
8 11
8 15
8 21
8 23
8 27
8 33
8 34
8 38
8 44
9 10
9 13
9 14
9 21
9 25
9 26
9 33
9 36
9 37
9 44
10 16
10 17
10 18
10 19
10 20
10 28
10 29
10 30
10 31
10 32
10 39
10 40
10 41
10 42
10 43
11 22
11 24
11 26
11 29
11 31
11 45
12 22
12 23
12 25
12 28
12 30
12 45
13 22
13 24
13 27
13 29
13 32
13 45
14 22
14 23
14 27
14 28
14 32
14 45
15 22
15 25
15 26
15 30
15 31
15 45
16 22
16 24
16 26
16 33
16 45
17 22
17 23
17 25
17 33
17 45
18 22
18 24
18 27
18 33
18 45
19 22
19 23
19 27
19 33
19 45
20 22
20 25
20 26
20 33
20 45
21 22
21 28
21 29
21 30
21 31
21 32
21 45
22 34
22 35
22 36
22 37
22 38
22 39
22 40
22 41
22 42
22 43
22 44
23 46
24 46
25 46
26 46
27 46
28 46
29 46
30 46
31 46
32 46
33 46
34 46
35 46
36 46
37 46
38 46
39 46
40 46
41 46
42 46
43 46
44 46
45 46
